
Gurobi 11.0.0 (win64, C++) logging started Mon Jul 28 21:04:15 2025

Set parameter TokenServer to value "141.76.38.119"
### START HEURISTIC APPROACH APPROACH ###
ProblemVariant: 1
### START PREPROCESSING ###
## Start start solution procedure ##
Start solution with 10 Vehicles and total costs 778.27 in 41.3953 s.
### END PREPROCESSING ###
Route 0 0-1-32-0 : weight util 0.118750 | volume util 0.372467 | infeasible with packing heuristic | feasible with CP model
Route 1 0-5-2-20-35-36-3-0 : weight util 0.737500 | volume util 0.696022 | infeasible with packing heuristic | feasible with CP model
Route 2 0-50-9-49-38-11-0 : weight util 0.456250 | volume util 0.594489 | infeasible with packing heuristic | feasible with CP model
Route 3 0-15-45-33-39-30-10-46-0 : weight util 0.537500 | volume util 0.684933 | infeasible with packing heuristic | feasible with CP model
Route 4 0-48-8-26-31-28-22-27-0 : weight util 0.593750 | volume util 0.680911 | infeasible with packing heuristic | feasible with CP model
Route 5 0-6-24-43-23-7-0 : weight util 0.443750 | volume util 0.739644 | infeasible with packing heuristic | feasible with CP model
Route 6 0-16-29-21-34-0 : weight util 0.343750 | volume util 0.550267 | infeasible with packing heuristic | feasible with CP model
Route 7 0-37-44-17-12-0 : weight util 0.356250 | volume util 0.669533 | infeasible with packing heuristic | feasible with CP model
Route 8 0-42-19-40-41-0 : weight util 0.350000 | volume util 0.597644 | infeasible with packing heuristic | feasible with CP model
Route 9 0-47-4-13-25-14-18-0 : weight util 0.918750 | volume util 0.513578 | infeasible with packing heuristic | feasible with CP model
